10
10
472104
0
0
77 22 4 22 43 10 97 5 7 46
1
0
137 40 3 221 30 161 1 3 21 272
2
0
39 54 6 38 137 220 42 97 25 18
3
0
84 9 75 51 78 9 115 12 26 15
4
0
54 115 9 79 49 107 0 124 27 11
5
0
23 32 13 49 34 67 52 17 20 20
6
0
2 9 54 51 8 2 70 33 79 126
7
0
49 81 8 13 11 14 181 6 47 15
8
0
53 92 17 31 115 77 94 59 33 101
9
0
32 87 30 9 24 50 3 19 116 26
